44
283 311 252 
366 429 
262 257 303 
250 259 308 
252 268 308 
491 303 
268 493 498 
433 353 347 
268 403 255 
260 250 
363 289 
296 295 
399 424 
414 295 259 
421 340 296 
389 368 372 
260 282 311 
316 317 
351 276 465 
353 259 260 
392 365 
328 251 280 
496 393 253 
254 396 265 
375 357 398 
365 444 408 
330 275 251 
277 383 432 
421 363 266 
483 325 256 
253 335 331 
485 491 
329 380 
303 448 259 
265 338 363 
324 381 265 
271 250 292 
372 298 294 
289 402 262 
427 322 
316 251 
279 336 313 
389 367 328 
406 250 254 
